--Link1--
%chk=molecule
#HF/6-31G* SCF=tight Test Pop=MK iop(6/33=2) iop(6/42=6) opt

remark line goes here

0   1
    N   47.5090000000       13.1200000000       22.9780000000     
    C   48.5120000000       13.7780000000       23.7520000000     
    O   51.7340000000       16.8220000000       19.8530000000     
    C   49.3600000000       14.4610000000       25.8840000000     
    N   48.4040000000       13.8250000000       25.0870000000     
    O   53.8560000000       14.3320000000       22.4060000000     
    C   50.4530000000       15.0660000000       25.3220000000     
    N   49.9700000000       14.5000000000       21.7330000000     
    C   50.5930000000       15.0330000000       23.8400000000     
    N   51.5320000000       15.5320000000       22.9150000000     
    C   49.6170000000       14.3900000000       23.0770000000     
    C   51.1310000000       15.1930000000       21.6560000000     
    C   51.8500000000       15.5200000000       20.3620000000     
    C   51.0610000000       17.8120000000       20.5710000000     
    C   50.9450000000       19.1690000000       19.9320000000     
    C   52.7640000000       16.2670000000       23.2440000000     
    C   54.0250000000       15.4010000000       23.2620000000     
    C   55.2120000000       16.2130000000       22.8280000000     
    C   54.2830000000       14.8640000000       24.6470000000     
    C   51.3920000000       15.7000000000       26.1800000000     
    C   51.2180000000       15.7090000000       27.5700000000     
    C   50.1050000000       15.0850000000       28.1310000000     
    C   49.1750000000       14.4660000000       27.3020000000     
    H   54.6590000000       13.8060000000       22.4360000000     
    H   46.7180000000       12.6900000000       23.4370000000     
    H   47.5900000000       13.0840000000       21.9720000000     
    H   52.2570000000       16.1850000000       25.7520000000     
    H   51.9430000000       16.1970000000       28.2040000000     
    H   49.9660000000       15.0820000000       29.2020000000     
    H   48.3080000000       13.9860000000       27.7320000000     
    H   51.4700000000       14.8390000000       19.6000000000     
    H   52.9110000000       15.3290000000       20.5240000000     
    H   51.5820000000       17.9400000000       21.5200000000     
    H   50.0500000000       17.4510000000       20.7580000000     
    H   51.9410000000       19.5620000000       19.7300000000     
    H   50.4180000000       19.8440000000       20.6060000000     
    H   50.3920000000       19.0840000000       18.9970000000     
    H   52.9010000000       17.0540000000       22.5030000000     
    H   52.6420000000       16.7140000000       24.2310000000     
    H   56.1050000000       15.5880000000       22.8440000000     
    H   55.3450000000       17.0540000000       23.5080000000     
    H   55.0470000000       16.5860000000       21.8170000000     
    H   55.1840000000       14.2510000000       24.6370000000     
    H   53.4350000000       14.2580000000       24.9660000000     
    H   54.4160000000       15.6950000000       25.3400000000     


