%nprocs=12
%mem=16GB
#HF/6-31G* SCF=tight Test Pop=MK iop(6/33=2) iop(6/42=6) fopt

remark line goes here

0   1
    N   60.6290000000      -30.1660000000       35.3590000000     
    C   61.4580000000      -30.7040000000       36.1670000000     
    O   60.5340000000      -31.8330000000       39.4220000000     
    C   61.0550000000      -29.8270000000       34.1600000000     
    N   62.7330000000      -30.9750000000       35.9050000000     
    C   62.3680000000      -30.0610000000       33.8350000000     
    N   59.3710000000      -30.0010000000       35.8550000000     
    C   63.2280000000      -30.6510000000       34.7340000000     
    N   62.5090000000      -31.6710000000       38.6290000000     
    C   59.3710000000      -30.4710000000       37.0880000000     
    C   60.6320000000      -30.9210000000       37.3450000000     
    C   60.1520000000      -29.1810000000       33.1930000000     
    C   60.0410000000      -29.5710000000       31.8820000000     
    C   59.1760000000      -28.9020000000       31.0470000000     
    C   58.4350000000      -27.8570000000       31.5000000000     
    C   59.4080000000      -28.1130000000       33.6180000000     
    C   58.5400000000      -27.4590000000       32.7910000000     
    C   61.2320000000      -31.5250000000       38.5330000000     
    C   59.0290000000      -29.3010000000       29.6240000000     
    H   62.7320000000      -29.7780000000       32.8590000000     
    H   64.2620000000      -30.8380000000       34.4870000000     
    H   58.5310000000      -30.4950000000       37.7660000000     
    H   60.6280000000      -30.3970000000       31.5080000000     
    H   57.7610000000      -27.3430000000       30.8300000000     
    H   59.5110000000      -27.7770000000       34.6390000000     
    H   57.9460000000      -26.6360000000       33.1610000000     
    H   62.9120000000      -32.0520000000       39.4730000000     
    H   63.1070000000      -31.4040000000       37.8600000000     
    H   58.3010000000      -28.6510000000       29.1380000000     
    H   58.6870000000      -30.3350000000       29.5700000000     
    H   59.9910000000      -29.2100000000       29.1200000000     


