--Link1--
%chk=molecule
#HF/6-31G* SCF=tight Test Pop=MK iop(6/33=2) iop(6/42=6) opt

remark line goes here

1   1
    C   52.3860000000      -24.8700000000       30.4860000000     
    C   58.2780000000      -29.9510000000       30.9500000000     
    C   59.2000000000      -29.3990000000       35.6500000000     
    C   58.4610000000      -29.7800000000       36.7670000000     
    C   59.0640000000      -30.3850000000       37.8570000000     
    C   60.4170000000      -30.6510000000       37.8570000000     
    C   61.2180000000      -30.3370000000       36.7250000000     
    C   60.5980000000      -29.7240000000       35.5870000000     
    C   61.4230000000      -29.4040000000       34.4790000000     
    C   63.2740000000      -30.3230000000       35.6910000000     
    C   62.7530000000      -29.6960000000       34.5370000000     
    C   54.6480000000      -24.3870000000       30.8470000000     
    C   61.0110000000      -31.2750000000       38.9980000000     
    C   54.2260000000      -25.3430000000       31.9640000000     
    C   52.8780000000      -25.9020000000       31.4810000000     
    C   57.2900000000      -27.1900000000       33.2640000000     
    C   57.5320000000      -27.8370000000       34.6250000000     
    C   58.3000000000      -29.8070000000       33.4400000000     
    C   58.3660000000      -29.0410000000       32.1470000000     
    C   56.1300000000      -26.2310000000       33.2510000000     
    F   53.0110000000      -27.1670000000       30.8960000000     
    N   53.3650000000      -23.7670000000       30.4930000000     
    N   55.2180000000      -26.3640000000       32.2790000000     
    N   58.5610000000      -28.8840000000       34.5470000000     
    N   62.5600000000      -30.6450000000       36.7520000000     
    N   61.4300000000      -31.7660000000       39.9220000000     
    O   57.2430000000      -28.1340000000       32.1780000000     
    O   56.0940000000      -25.3240000000       34.0900000000     
    H   51.4040000000      -24.5010000000       30.7830000000     
    H   52.3230000000      -25.3090000000       29.4900000000     
    H   59.1330000000      -30.6270000000       30.9440000000     
    H   58.2810000000      -29.3540000000       30.0380000000     
    H   57.3570000000      -30.5310000000       31.0010000000     
    H   57.3960000000      -29.6000000000       36.7840000000     
    H   58.4680000000      -30.6520000000       38.7170000000     
    H   61.0030000000      -28.9350000000       33.6010000000     
    H   64.3290000000      -30.5540000000       35.7050000000     
    H   63.4020000000      -29.4510000000       33.7090000000     
    H   55.0760000000      -24.9260000000       30.0020000000     
    H   55.3630000000      -23.6460000000       31.2060000000     
    H   54.1340000000      -24.8340000000       32.9240000000     
    H   52.1780000000      -26.0540000000       32.3030000000     
    H   58.1770000000      -26.5810000000       33.0870000000     
    H   56.6010000000      -28.2810000000       34.9770000000     
    H   57.8580000000      -27.0710000000       35.3290000000     
    H   59.0510000000      -30.5970000000       33.4370000000     
    H   57.3100000000      -30.2470000000       33.5550000000     
    H   59.3170000000      -28.5170000000       32.0540000000     
    H   53.1080000000      -23.0710000000       31.1780000000     
    H   53.4080000000      -23.2970000000       29.6000000000     
    H   55.2170000000      -27.2160000000       31.7360000000     


