%nprocs=12
%mem=16GB
#HF/6-31G* SCF=tight Test Pop=MK iop(6/33=2) iop(6/42=6) opt

remark line goes here

1   1
    C   37.4150000000       -4.3340000000       14.7760000000     
    C   37.9240000000       -3.8190000000       13.6510000000     
    C   38.3320000000        0.0510000000       11.6120000000     
    C   37.9520000000        1.2780000000        9.6130000000     
    C   37.9530000000        0.0000000000        8.8930000000     
    C   38.1290000000       -1.1490000000        9.5350000000     
    C   40.7670000000       -5.5160000000       11.5340000000     
    C   37.8100000000       -6.3990000000       16.1020000000     
    C   38.1050000000       -5.8150000000       17.5000000000     
    C   38.0740000000       -6.9790000000       18.5210000000     
    C   36.4530000000       -8.2440000000       17.0930000000     
    C   36.4210000000       -7.0760000000       16.0770000000     
    C   38.2150000000        2.4870000000       11.6960000000     
    C   37.8550000000       -0.3970000000        7.4940000000     
    C   37.9800000000       -1.7230000000        7.5560000000     
    N   38.0360000000       -5.4670000000       15.0050000000     
    C   38.9480000000       -4.7500000000       13.2160000000     
    N   38.9620000000       -5.6980000000       14.0480000000     
    C   37.7120000000       -2.5910000000       12.8800000000     
    C   38.4620000000       -2.3900000000       11.7810000000     
    C   39.4770000000       -3.3850000000       11.3470000000     
    C   39.7360000000       -4.5210000000       12.0050000000     
    C   38.3000000000       -1.1440000000       11.0020000000     
    N   38.1780000000        1.2310000000       10.9490000000     
    N   36.7880000000       -7.7130000000       18.4320000000     
    O   37.8070000000        2.3130000000        8.9860000000     
    O   38.1610000000       -2.2530000000        8.7770000000     
    H   36.6360000000       -3.8980000000       15.3840000000     
    H   38.4870000000        0.0780000000       12.6800000000     
    H   40.8020000000       -6.3580000000       12.2260000000     
    H   41.7450000000       -5.0360000000       11.4960000000     
    H   40.4990000000       -5.8740000000       10.5400000000     
    H   38.5510000000       -7.1770000000       15.9190000000     
    H   37.3480000000       -5.0750000000       17.7590000000     
    H   39.0880000000       -5.3450000000       17.5050000000     
    H   38.1890000000       -6.5770000000       19.5280000000     
    H   38.8940000000       -7.6650000000       18.3080000000     
    H   37.2070000000       -8.9710000000       16.7900000000     
    H   35.4760000000       -8.7260000000       17.1260000000     
    H   36.2110000000       -7.4580000000       15.0780000000     
    H   35.6520000000       -6.3580000000       16.3600000000     
    H   38.4050000000        2.2780000000       12.7490000000     
    H   37.2580000000        2.9990000000       11.5940000000     
    H   39.0100000000        3.1210000000       11.3020000000     
    H   37.7160000000        0.2270000000        6.6240000000     
    H   37.9380000000       -2.3390000000        6.6700000000     
    H   36.9730000000       -1.8660000000       13.1860000000     
    H   40.0390000000       -3.1790000000       10.4480000000     
    H   36.0500000000       -7.0830000000       18.7110000000     
    H   36.8280000000       -8.4910000000       19.0750000000     


