%nprocs=12
%mem=16GB
#HF/6-31G* SCF=tight Test Pop=MK iop(6/33=2) iop(6/42=6) fopt

remark line goes here

0   1
    N  -65.2680000000        0.1150000000      -26.9230000000     
    C  -64.2450000000       -0.1600000000      -27.7540000000     
    O  -61.5370000000        3.5070000000      -27.9000000000     
    C  -66.0700000000       -0.9290000000      -28.6020000000     
    N  -64.7810000000       -0.8180000000      -28.7570000000     
    C  -62.9840000000       -2.1510000000      -29.5560000000     
    N  -66.4570000000       -0.3950000000      -27.4510000000     
    C  -62.0910000000       -2.5470000000      -30.5470000000     
    C  -63.9970000000       -1.1930000000      -29.7540000000     
    C  -62.1620000000       -1.9450000000      -31.8690000000     
    C  -64.0640000000       -0.5850000000      -31.0080000000     
    C  -63.2090000000       -0.9320000000      -32.0510000000     
    C  -66.7140000000       -1.7320000000      -31.2420000000     
    C  -62.7910000000        0.1960000000      -27.5390000000     
    C  -62.7160000000        1.5790000000      -26.9200000000     
    C  -62.6930000000        2.6500000000      -28.0070000000     
    C  -61.2410000000       -2.3370000000      -32.9880000000     
    C  -63.3670000000       -0.2660000000      -33.3820000000     
    C  -61.0570000000       -3.5880000000      -30.2850000000     
    S  -67.2540000000       -1.6800000000      -29.6040000000     
    H  -61.5870000000        4.1520000000      -28.6090000000     
    H  -62.8950000000       -2.6040000000      -28.5800000000     
    H  -64.8050000000        0.1820000000      -31.1760000000     
    H  -67.4740000000       -2.2090000000      -31.8600000000     
    H  -65.7870000000       -2.3020000000      -31.3010000000     
    H  -66.5400000000       -0.7170000000      -31.6000000000     
    H  -62.2670000000        0.1930000000      -28.4950000000     
    H  -62.3300000000       -0.5310000000      -26.8700000000     
    H  -63.5860000000        1.7340000000      -26.2820000000     
    H  -61.8080000000        1.6560000000      -26.3220000000     
    H  -62.6800000000        2.1620000000      -28.9810000000     
    H  -63.5920000000        3.2600000000      -27.9190000000     
    H  -61.4820000000       -1.7550000000      -33.8770000000     
    H  -61.3630000000       -3.3980000000      -33.2040000000     
    H  -60.2090000000       -2.1430000000      -32.6950000000     
    H  -62.6200000000       -0.6550000000      -34.0740000000     
    H  -63.2310000000        0.8100000000      -33.2690000000     
    H  -64.3640000000       -0.4670000000      -33.7730000000     
    H  -61.1410000000       -3.9320000000      -29.2540000000     
    H  -60.0660000000       -3.1650000000      -30.4480000000     
    H  -61.2080000000       -4.4290000000      -30.9620000000     


