--Link1--
%chk=molecule
# MP2 SCF=tight Test Pop=MK iop(6/33=2) iop(6/42=6) opt Pop=ReadRadii

remark line goes here

0   1
    C   62.5790000000      -31.1950000000       35.4970000000     
    N   60.0930000000      -31.3560000000       38.2510000000     
    O   57.5190000000      -32.2910000000       35.9670000000     
    C   64.5920000000      -30.1680000000       34.7260000000     
    C   62.6170000000      -32.0860000000       34.4470000000     
    C   64.6470000000      -31.0760000000       33.6800000000     
    C   63.6600000000      -32.0320000000       33.5360000000     
    C   61.4490000000      -31.2600000000       36.4240000000     
    C   61.3880000000      -31.3390000000       37.9100000000     
    C   59.3930000000      -31.2950000000       37.0710000000     
    C   59.6630000000      -31.2020000000       34.6210000000     
    C   59.3560000000      -29.8870000000       33.9280000000     
    C   60.6320000000      -29.0970000000       33.7130000000     
    C   58.7450000000      -30.1600000000       32.5690000000     
    C   57.9090000000      -31.2930000000       36.9070000000     
    C   56.1250000000      -32.5340000000       36.1790000000     
    I   63.0080000000      -31.4400000000       39.3740000000     
    C   55.7380000000      -33.7610000000       35.4240000000     
    N   60.1770000000      -31.2200000000       36.0040000000     
    O   58.4100000000      -29.1410000000       34.6920000000     
    C   63.5480000000      -30.2230000000       35.6360000000     
    H   65.3620000000      -29.4180000000       34.8320000000     
    H   61.8370000000      -32.8240000000       34.3340000000     
    H   65.4640000000      -31.0360000000       32.9750000000     
    H   63.7010000000      -32.7340000000       32.7170000000     
    H   60.4040000000      -31.7130000000       34.0060000000     
    H   58.7360000000      -31.7760000000       34.6250000000     
    H   61.3330000000      -29.6920000000       33.1280000000     
    H   61.0770000000      -28.8560000000       34.6780000000     
    H   60.4030000000      -28.1750000000       33.1780000000     
    H   59.4480000000      -30.7300000000       31.9620000000     
    H   58.5220000000      -29.2150000000       32.0740000000     
    H   57.8250000000      -30.7310000000       32.6920000000     
    H   57.5870000000      -30.3150000000       36.5490000000     
    H   57.4400000000      -31.5000000000       37.8690000000     
    H   55.9350000000      -32.6810000000       37.2420000000     
    H   55.5450000000      -31.6840000000       35.8210000000     
    H   56.3200000000      -34.6090000000       35.7850000000     
    H   55.9340000000      -33.6110000000       34.3620000000     
    H   54.6770000000      -33.9590000000       35.5730000000     
    H   57.6130000000      -29.6710000000       34.7640000000     
    H   63.4940000000      -29.5110000000       36.4470000000     

I   1.99

!----------------------------------------------------------------------
! Basis Set Exchange
! Version 0.10
! https://www.basissetexchange.org
!----------------------------------------------------------------------
!   Basis set: LANL2DZdp
! Description: DZP  Double Zeta + Polarization + Diffuse ECP
!        Role: orbital
!     Version: 0  (Data from the original Basis Set Exchange)
!----------------------------------------------------------------------


H     0
S    3   1.00
     19.2384000              0.0328280
      2.8987000              0.2312040
      0.6535000              0.8172260
S    1   1.00
      0.1776000              1.0000000
S    1   1.00
      0.0498                 1.0
P    1   1.00
      0.3560                 1.0
****
C     0
S    7   1.00
   4233.0000000              0.0012200
    634.9000000              0.0093420
    146.1000000              0.0454520
     42.5000000              0.1546570
     14.1900000              0.3588660
      5.1480000              0.4386320
      1.9670000              0.1459180
S    2   1.00
      5.1480000             -0.1683670
      0.4962000              1.0600910
S    1   1.00
      0.1533000              1.0000000
P    4   1.00
     18.1600000              0.0185390
      3.9860000              0.1154360
      1.1430000              0.3861880
      0.3594000              0.6401140
P    1   1.00
      0.1146000              1.0000000
P    1   1.00
      0.0311                 1.0
D    1   1.00
      0.5870                 1.0
****
N     0
S    7   1.00
   5909.0000000              0.0011900
    887.5000000              0.0090990
    204.7000000              0.0441450
     59.8400000              0.1504640
     20.0000000              0.3567410
      7.1930000              0.4465330
      2.6860000              0.1456030
S    2   1.00
      7.1930000             -0.1604050
      0.7000000              1.0582150
S    1   1.00
      0.2133000              1.0000000
P    4   1.00
     26.7900000              0.0182540
      5.9560000              0.1164610
      1.7070000              0.3901780
      0.5314000              0.6371020
P    1   1.00
      0.1654000              1.0000000
P    1   1.00
      0.0533                 1.0
D    1   1.00
      0.7360                 1.0
****
O     0
S    7   1.00
   7817.0000000              0.0011760
   1176.0000000              0.0089680
    273.2000000              0.0428680
     81.1700000              0.1439300
     27.1800000              0.3556300
      9.5320000              0.4612480
      3.4140000              0.1402060
S    2   1.00
      9.5320000             -0.1541530
      0.9398000              1.0569140
S    1   1.00
      0.2846000              1.0000000
P    4   1.00
     35.1800000              0.0195800
      7.9040000              0.1242000
      2.3050000              0.3947140
      0.7171000              0.6273760
P    1   1.00
      0.2137000              1.0000000
P    1   1.00
      0.0673                 1.0
D    1   1.00
      0.9610                 1.0
****
I     0
S    2   1.00
      0.7242000             -2.9731048
      0.4653000              3.4827643
S    1   1.00
      0.1336000              1.0000000
P    2   1.00
      1.2900000             -0.2092377
      0.3180000              1.1035347
P    1   1.00
      0.1053000              1.0000000
P    1   1.00
      0.0308                 1.0
D    1   1.00
      0.2940                 1.0
****

I     0
I-ECP     3     46
f potential
  5
0      1.0715702             -0.0747621
1     44.1936028            -30.0811224
2     12.9367609            -75.3722721
2      3.1956412            -22.0563758
2      0.8589806             -1.6979585
s-f potential
  5
0    127.9202670              2.9380036
1     78.6211465             41.2471267
2     36.5146237            287.8680095
2      9.9065681            114.3758506
2      1.9420086             37.6547714
p-f potential
  5
0     13.0035304              2.2222630
1     76.0331404             39.4090831
2     24.1961684            177.4075002
2      6.4053433             77.9889462
2      1.5851786             25.7547641
d-f potential
  5
0     40.4278108              7.0524360
1     28.9084375             33.3041635
2     15.6268936            186.9453875
2      4.1442856             71.9688361
2      0.9377235              9.3630657

